100
1000
168
168
167
167
167
167
167
166
166
165
165
165
164
163
163
162
160
160
160
159
159
159
158
158
158
158
158
158
157
157
156
156
155
155
154
154
154
154
154
154
154
153
153
152
151
150
150
149
148
148
148
147
145
144
144
143
142
142
141
140
139
138
138
138
137
136
136
136
136
136
135
135
135
134
132
131
131
129
126
126
126
126
125
124
124
123
122
122
121
120
120
119
119
118
117
117
116
116
114
114
